Optimal - objective value 20381.00000000
      0 x0_1                   1         3.00000000000097
      3 x0_4                   1                      87
     13 x1_2                   1                       0
     26 x2_3                   1                       0
     47 x3_12                  1         1.99999999999818
     52 x4_5                   1                       0
     65 x5_6                   1                       0
     78 x6_7                   1                       0
     91 x7_8                   1                       0
    104 x8_9                   1         2.00000000000097
    117 x9_10                  1                       0
    130 x10_11                 1                       0
    132 x11_0                  1                       0
    144 x12_0                  1         22.9999999999973
    156 u1                     3                       0
    157 u2       5.00000000000001                       0
    158 u3       8.00000000000002                       0
    159 u4       2.99999999999996                       0
    160 u5       6.99999999999997                       0
    161 u6       9.99999999999998                       0
    162 u7                    13                       0
    163 u8                    16                       0
    164 u9                    18                       0
    165 u10                   21                       0
    166 u11                   25                       0
    167 u12                   11                       0
